SumColouring/JavaBacktracker/RandomInstances/16_0.10_1.col
c File: instances/16_0.10_1.col
c
c Description: Random graph of size 16 vertices and P(0.1) of edges between any two vertices.
p col 16 120
e 1 10
e 2 3
e 2 9
e 3 8
e 4 14
e 6 13
e 6 16
e 8 12
e 8 16
e 9 13
e 11 12
e 13 15