SumColouring/MiniZinc model/Experiments/16_0.10_1.col.dzn
% Data file generated from RandomInstances/16_0.10_1.col DIMACS file
size = 16;

chi = 3;

adjacency = [|0,0,0,0,0,0,0,0,0,1,0,0,0,0,0,0,
|0,0,1,0,0,0,0,0,1,0,0,0,0,0,0,0,
|0,1,0,0,0,0,0,1,0,0,0,0,0,0,0,0,
|0,0,0,0,0,0,0,0,0,0,0,0,0,1,0,0,
|0,0,0,0,0,0,0,0,0,0,0,0,0,0,0,0,
|0,0,0,0,0,0,0,0,0,0,0,0,1,0,0,1,
|0,0,0,0,0,0,0,0,0,0,0,0,0,0,0,0,
|0,0,1,0,0,0,0,0,0,0,0,1,0,0,0,1,
|0,1,0,0,0,0,0,0,0,0,0,0,1,0,0,0,
|1,0,0,0,0,0,0,0,0,0,0,0,0,0,0,0,
|0,0,0,0,0,0,0,0,0,0,0,1,0,0,0,0,
|0,0,0,0,0,0,0,1,0,0,1,0,0,0,0,0,
|0,0,0,0,0,1,0,0,1,0,0,0,0,0,1,0,
|0,0,0,1,0,0,0,0,0,0,0,0,0,0,0,0,
|0,0,0,0,0,0,0,0,0,0,0,0,1,0,0,0,
|0,0,0,0,0,1,0,1,0,0,0,0,0,0,0,0,
|];